c NeuroCodeBench 2.0 CNF formula with verdict Unsat
p cnf 65 147
-1 -36 -24 53 7 -21 48 45 0
1 36 51 -22 -42 13 50 18 -23 -63 17 0
-1 36 -11 55 -28 0
-1 36 -11 55 28 -34 0
-1 36 11 -62 38 -5 0
-1 36 -11 -55 59 -58 -31 -30 0
1 -36 65 24 -6 64 33 0
1 -36 65 -24 30 -6 -21 42 -5 -27 0
-1 -36 24 12 19 -58 -16 0
-1 -36 -24 -53 12 -23 26 0
-1 -36 24 12 19 58 56 40 0
-1 36 11 62 57 60 34 0
1 36 51 22 41 30 0
-1 36 11 62 -57 63 49 0
1 -36 -65 30 -42 -4 -9 0
1 -36 -65 30 42 50 34 -26 37 0
-1 -36 -24 -53 12 -23 -26 46 0
1 -36 -65 -30 5 0
1 36 -51 -22 9 24 -6 49 0
1 36 51 22 -41 24 0
-1 -36 24 12 19 58 56 -40 0
1 36 51 -22 -42 -13 6 0
-1 -36 24 12 -19 40 61 -9 0
-1 36 -11 -55 59 58 0
-1 36 11 62 -57 63 -49 0
-1 -36 24 12 -19 40 61 9 0
1 36 -51 -22 9 24 -6 -49 0
1 36 51 -22 -42 13 50 -18 -9 62 0
1 -36 65 -24 -30 8 -12 0
-1 -36 24 12 -19 40 -61 0
-1 -36 -24 -53 -12 16 0
-1 -36 24 12 19 58 -56 0
1 36 -51 22 -10 25 43 0
1 -36 65 -24 -30 8 12 34 0
1 -36 65 24 -6 64 -33 -61 18 26 0
1 36 51 -22 -42 13 50 -18 9 6 0
1 -36 65 24 -6 64 -33 61 7 5 0
-1 -36 -24 53 -7 -55 -5 45 49 26 0
1 -36 65 -24 30 -6 -21 42 5 0
1 36 51 -22 42 64 -2 -44 0
1 36 51 22 41 -30 0
-1 -36 24 -12 -20 50 0
1 -36 65 24 6 -62 -23 -28 0
1 36 51 -22 -42 13 -50 34 28 0
-1 -36 24 12 -19 -40 41 16 0
1 -36 65 -24 30 6 -13 0
1 -36 65 -24 30 6 13 -29 0
1 36 51 -22 -42 13 50 -18 -9 -62 0
1 -36 65 -24 -30 -8 41 -43 0
1 36 51 22 -41 -24 0
1 -36 65 24 -6 -64 0
1 -36 -65 30 -42 4 0
-1 -36 -24 -53 12 23 0
-1 36 11 -62 -38 20 0
1 -36 65 24 -6 64 -33 61 -7 -26 0
-1 -36 -24 53 7 -21 48 -45 0
1 -36 -65 30 -42 -4 9 0
1 36 51 -22 -42 13 50 18 -23 -63 -17 19 -9 0
1 -36 65 -24 -30 -8 -41 0
1 -36 65 24 6 -62 23 0
1 -36 65 -24 -30 8 12 -34 37 0
-1 -36 -24 -53 12 -23 -26 -46 0
1 36 51 -22 -42 13 50 18 -23 -63 -17 19 9 0
-1 -36 24 12 19 -58 16 39 0
1 36 51 -22 42 -64 7 0
-1 -36 -24 53 -7 -55 -5 45 -49 0
1 -36 -65 30 42 50 34 -26 -37 0
1 36 51 -22 -42 13 50 18 23 0
1 -36 -65 -30 -5 0
1 -36 65 24 6 62 57 -30 -28 0
1 -36 65 24 6 62 57 30 -29 21 0
1 36 51 -22 42 64 2 -11 48 0
1 -36 -65 30 42 -50 0
1 36 51 -22 -42 13 50 -18 9 -6 0
1 36 51 -22 42 64 2 11 -65 0
1 -36 -65 30 42 50 -34 -21 39 0
1 36 -51 22 -10 -25 23 -42 0
-1 36 11 62 57 -60 0
1 -36 -65 30 42 50 34 26 0
1 36 51 -22 -42 13 50 18 -23 -63 -17 -19 0
-1 -36 -24 53 -7 -55 5 45 0
1 36 -51 22 -10 -25 -23 0
1 -36 65 -24 30 -6 21 -58 -41 0
1 -36 65 24 -6 64 -33 61 7 -5 0
-1 -36 24 12 19 -58 16 -39 0
1 36 51 -22 -42 13 -50 -34 0
1 36 51 -22 42 -64 -7 0
1 36 51 -22 42 64 2 11 65 0
1 36 51 -22 42 64 -2 44 -25 0
1 36 51 -22 42 64 2 -11 -48 0
1 36 -51 22 -10 -25 23 42 0
-1 36 -11 55 28 34 -26 0
1 -36 -65 30 42 50 -34 21 0
1 -36 65 24 -6 64 -33 61 -7 26 0
1 -36 -65 30 42 50 -34 -21 -39 0
-1 -36 -24 53 -7 55 0
1 36 51 -22 -42 -13 -6 0
-1 36 11 -62 -38 -20 0
-1 -36 24 12 -19 -40 -41 0
1 -36 65 24 6 -62 -23 28 0
1 -36 65 24 6 62 57 30 29 0
1 -36 65 -24 30 -6 -21 -42 0
-1 36 11 62 -57 -63 6 0
-1 -36 -24 53 7 -21 -48 0
1 36 -51 -22 -9 -11 0
-1 36 11 -62 38 5 0
1 -36 65 24 6 62 -57 -42 0
-1 -36 24 -12 20 -2 0
1 36 51 -22 42 64 -2 44 25 0
1 36 -51 22 10 0
1 36 -51 -22 9 24 6 0
1 36 -51 22 -10 25 -43 0
-1 -36 -24 -53 -12 -16 63 0
1 36 -51 -22 9 -24 0
1 -36 65 -24 30 -6 21 58 0
-1 -36 -24 53 7 21 -58 0
1 -36 65 -24 30 -6 -21 42 -5 27 22 0
1 -36 65 -24 -30 -8 41 43 0
1 -36 65 -24 30 6 13 29 0
-1 36 -11 -55 59 -58 31 0
-1 -36 -24 -53 -12 -16 -63 0
1 -36 65 24 6 62 -57 42 0
1 -36 65 -24 30 -6 21 -58 41 0
-1 36 -11 55 28 34 26 0
-1 36 -11 -55 -59 0
1 -36 65 -24 30 -6 -21 42 -5 27 -22 -10 0
-1 -36 24 12 -19 -40 41 -16 -56 0
1 -36 65 24 6 62 57 -30 28 0
1 36 51 -22 -42 13 -50 34 -28 0
-1 36 -11 -55 59 -58 -31 30 0
1 -36 65 24 -6 64 -33 -61 -18 0
1 36 -51 -22 -9 11 0
-1 -36 -24 53 -7 -55 5 -45 0
1 -36 65 24 6 62 57 30 -29 -21 0
-1 36 11 62 57 60 -34 0
-1 -36 24 12 -19 -40 41 -16 56 0
-1 36 11 62 -57 -63 -6 0
1 -36 65 -24 30 -6 -21 42 -5 27 -22 10 0
-1 -36 24 -12 -20 -50 0
-1 -36 24 -12 20 2 -64 0
-1 -36 24 -12 20 2 64 0
1 -36 65 -24 -30 8 12 -34 -37 0
-1 -36 -24 53 -7 -55 -5 -45 0
1 -36 65 24 -6 64 -33 -61 18 -26 0
-1 -36 -24 53 -7 -55 -5 45 49 -26 0
1 36 51 -22 -42 13 50 18 -23 63 0
-1 -36 -24 53 7 21 58 0
